clingo version 5.2.2
Reading from ...r180_u540_o12_N010_encoding-a_maxRP.lp ...
Solving...
Solving...
Solving...
Solving...
Solving...
Solving...
Solving...
Solving...
Solving...
Solving...
Solving...
Solving...
Solving...
Solving...
Solving...
Solving...
Solving...
Solving...
Solving...
Solving...
Solving...
Solving...
Solving...
Solving...
Solving...
Solving...
Solving...
Solving...
Solving...
Solving...
Solving...
Solving...
Solving...
Solving...
Solving...
Solving...
Solving...
Solving...
Solving...
Solving...
Solving...
Solving...
Solving...
Solving...
Solving...
Solving...
Solving...
Solving...
Solving...
Solving...
Solving...
Solving...
Solving...
Solving...
Solving...
Solving...
Solving...
Solving...
Solving...
Solving...
Solving...
Solving...
Solving...
Solving...
Solving...
Solving...
Solving...
Solving...
Solving...
Solving...
Solving...
Solving...
Solving...
Solving...
Solving...
Solving...
Solving...
Solving...
Solving...
Solving...
Solving...
Solving...
Solving...
Solving...
Solving...
Solving...
Solving...
Solving...
Solving...
Solving...
Solving...
Solving...
Solving...
Solving...
Solving...
Solving...
Solving...
Solving...
Solving...
Solving...
Solving...
Solving...
Solving...
Solving...
Solving...
Solving...
Solving...
Solving...
Solving...
Solving...
Solving...
Solving...
Solving...
Solving...
Solving...
Solving...
Solving...
Solving...
Solving...
Solving...
Solving...
Solving...
Solving...
Solving...
Solving...
Solving...
Solving...
Solving...
Solving...
Solving...
Solving...
Solving...
Solving...
Solving...
Solving...
Solving...
Solving...
Solving...
Solving...
Solving...
Solving...
Solving...
Solving...
Solving...
Solving...
Solving...
Solving...
Solving...
Solving...
Solving...
Solving...
Solving...
Solving...
Solving...
Solving...
Solving...
Solving...
Solving...
Solving...
Solving...
Solving...
Solving...
Solving...
Solving...
Solving...
Solving...
Solving...
Solving...
Solving...
Solving...
Solving...
Solving...
Solving...
Solving...
Solving...
Solving...
Solving...
Solving...
Solving...
Solving...
Solving...
Solving...
Solving...
Solving...
UNKNOWN

TIME LIMIT   : 1
Models       : 0+
Calls        : 184
Time         : 1800.038s (Solving: 460.53s 1st Model: 0.00s Unsat: 457.36s)
CPU Time     : 1022.120s

Choices      : 999297  
Conflicts    : 455596   (Analyzed: 455433)
Restarts     : 2601     (Average: 175.10 Last: 512)
Problems     : 184      (Average Length: 2.00 Splits: 0)
Lemmas       : 455433   (Deleted: 357234)
  Binary     : 2564     (Ratio:   0.56%)
  Ternary    : 6119     (Ratio:   1.34%)
  Conflict   : 455433   (Average Length:   40.2 Ratio: 100.00%) 
  Loop       : 0        (Average Length:    0.0 Ratio:   0.00%) 
  Other      : 0        (Average Length:    0.0 Ratio:   0.00%) 
Backjumps    : 455433   (Average:  2.13 Max: 3754 Sum: 971062)
  Executed   : 454195   (Average:  2.13 Max: 3754 Sum: 969774 Ratio:  99.87%)
  Bounded    : 1238     (Average:  1.04 Max:   2 Sum:   1288 Ratio:   0.13%)

Rules        : 21720741 (Original: 18709554)
  Choice     : 1281    
Atoms        : 7684673  (Original: 7205215 Auxiliary: 479458)
Bodies       : 18144763 (Original: 15636733)
  Count      : 34527    (Original: 88889)
Equivalences : 16781319 (Atom=Atom: 5154443 Body=Body: 54621 Other: 11572255)
Tight        : Yes
Variables    : 3498323  (Eliminated:    0 Frozen: 595199)
Constraints  : 13622006 (Binary:  69.1% Ternary:  28.2% Other:   2.8%)

